100
100
97
96
95
94
90
88
88
87
86
85
84
84
82
81
81
80
80
80
79
79
78
74
73
69
69
68
68
67
67
65
64
63
63
60
60
58
57
56
55
53
53
51
51
51
47
47
46
46
45
41
41
39
38
37
37
37
37
35
34
33
33
33
33
32
31
31
31
30
30
28
22
22
20
20
20
20
19
19
17
17
17
16
16
15
13
13
12
12
10
10
9
8
8
8
5
5
5
4
4
1
